
Gurobi 9.5.2 (win64) logging started Mon Mar 27 20:27:09 2023

Set parameter LogFile to value "2023-03-27_20hr-25min-09sec/Nodes30_Arcs35_LocNodes22/Formulation-2Instance-5.log"
Set parameter TimeLimit to value 600
Set parameter IntFeasTol to value 1e-09
Set parameter DualReductions to value 0
Set parameter NonConvex to value 2
Gurobi Optimizer version 9.5.2 build v9.5.2rc0 (win64)
Thread count: 4 physical cores, 8 logical processors, using up to 8 threads
Optimize a model with 118 rows, 204 columns and 418 nonzeros
Model fingerprint: 0xb957dbdf
Model has 65 quadratic objective terms
Model has 65 SOS constraints
Variable types: 182 continuous, 22 integer (22 binary)
Coefficient statistics:
  Matrix range     [5e-02, 2e+02]
  Objective range  [2e-02, 1e+03]
  QObjective range [1e-01, 8e+00]
  Bounds range     [1e+00, 1e+00]
  RHS range        [2e-02, 2e+03]
Presolve removed 12 rows and 12 columns
Presolve time: 0.01s
Presolved: 106 rows, 192 columns, 400 nonzeros
Presolved model has 63 SOS constraint(s)
Presolved model has 63 quadratic objective terms
Variable types: 170 continuous, 22 integer (22 binary)

Root relaxation: objective 8.637742e+05, 227 iterations, 0.00 seconds (0.00 work units)

    Nodes    |    Current Node    |     Objective Bounds      |     Work
 Expl Unexpl |  Obj  Depth IntInf | Incumbent    BestBd   Gap | It/Node Time

     0     0 863774.229    0    4          - 863774.229      -     -    0s
H    0     0                    860344.67377 863774.229  0.40%     -    0s
H    0     0                    863008.80544 863774.229  0.09%     -    0s
     0     0 863475.686    0    4 863008.805 863475.686  0.05%     -    0s

Cutting planes:
  MIR: 1
  Flow cover: 2

Explored 1 nodes (236 simplex iterations) in 0.11 seconds (0.01 work units)
Thread count was 8 (of 8 available processors)

Solution count 2: 863009 860345 

Optimal solution found (tolerance 1.00e-04)
Best objective 8.630088054374e+05, best bound 8.630088054374e+05, gap 0.0000%

User-callback calls 260, time in user-callback 0.00 sec
